%mem=4000MB
# PBE1PBE Def2SVP Freq EmpiricalDispersion=GD3BJ integral=ultrafinegrid 

 H2_hess_g09

0 1
H    0.00000000   0.00000000   0.00000000 
H    0.00000000   0.00000000   1.00000000 



