! LooseOpt PBE RI D3BJ def2-SVP def2/J
%geom MaxIter 100 end
%pal nprocs 8
end
%output 
xyzfile=True 
end 
%scf 
maxiter 250 
end
% maxcore 4000
*xyz 0 1
H    0.00000000   0.00000000   0.00000000 
H    0.00000000   0.00000000   0.70000000 
*
