%mem=4000MB
%nprocshared=2
# PBE1PBE/Def2SVP NoSymm 

 H

0 2
H    0.00000000   0.00000000   0.00000000 

