! Opt PBE0 RIJCOSX D3BJ def2-SVP def2/J CPCM(Water)
%cpcm
 surfacetype vdw_gaussian
end
%geom MaxIter 100 end
%output 
xyzfile=True 
end 
%scf 
maxiter 250 
end
% maxcore 4000
*xyz 0 1
C   -0.14100000  -0.00040000  -0.00190000 
Cl   1.64180000   0.03290000  -0.03970000 
H   -0.51850000  -0.60450000  -0.86430000 
H   -0.43980000  -0.46050000   0.96410000 
H   -0.54240000   1.03260000  -0.05830000 
*
