! SP HF def2-SVP
*xyz 0 2
H    0.0000    0.00000   0.00000
*